[TITLE]

[OPTIONS]
;;Option             Value
FLOW_UNITS           CMS
INFILTRATION         HORTON
FLOW_ROUTING         DYNWAVE
LINK_OFFSETS         ELEVATION
MIN_SLOPE            0
ALLOW_PONDING        NO
SKIP_STEADY_STATE    NO

START_DATE           10/07/2023
START_TIME           00:00:00
REPORT_START_DATE    10/07/2023
REPORT_START_TIME    00:00:00
END_DATE             10/07/2023
END_TIME             10:00:00
SWEEP_START          01/01
SWEEP_END            12/31
DRY_DAYS             0
REPORT_STEP          00:01:00
WET_STEP             00:05:00
DRY_STEP             01:00:00
ROUTING_STEP         00:00:15

INERTIAL_DAMPING     PARTIAL
NORMAL_FLOW_LIMITED  BOTH
FORCE_MAIN_EQUATION  H-W
VARIABLE_STEP        0.75
LENGTHENING_STEP     0
MIN_SURFAREA         12.557
MAX_TRIALS           8
HEAD_TOLERANCE       0.005
SYS_FLOW_TOL         5
LAT_FLOW_TOL         5
MINIMUM_STEP         0.5
THREADS              1

[FILES]
;;Interfacing Files

[EVAPORATION]
;;Data Source    Parameters
;;-------------- ----------------
CONSTANT         0.0               
DRY_ONLY         NO

[TEMPERATURE]
;;Data Element     Values     

[ADJUSTMENTS]
;;Parameter        Monthly Adjustments

[RAINGAGES]
;;Name           Format    Interval SCF      Source    
;;-------------- --------- ------ ------ ----------

[SUBCATCHMENTS]
;;Name           Rain Gage        Outlet           Area     %Imperv  Width    %Slope   CurbLen  SnowPack        
;;-------------- ---------------- ---------------- -------- -------- -------- -------- -------- ----------------

[SUBAREAS]
;;Subcatchment   N-Imperv   N-Perv     S-Imperv   S-Perv     PctZero    RouteTo    PctRouted
;;-------------- ---------- ---------- ---------- ---------- ---------- ---------- ----------

[INFILTRATION]
;;Subcatchment   Param1     Param2     Param3     Param4     Param5  
;;-------------- ---------- ---------- ---------- ---------- ----------
[LID_CONTROLS]
;;Name           Type/Layer Parameters
;;-------------- ---------- ----------

[LID_USAGE]
;;Subcatchment   LID Process      Number  Area       Width      InitSat    FromImp    ToPerv     RptFile                  DrainTo          FromPerv  
;;-------------- ---------------- ------- ---------- ---------- ---------- ---------- ---------- ------------------------ ---------------- ----------

[AQUIFERS]
;;Name           Por    WP     FC     Ksat   Kslope Tslope ETu    ETs    Seep   Ebot   Egw    Umc    ETupat 
;;-------------- ------ ------ ------ ------ ------ ------ ------ ------ ------ ------ ------ ------ ------

[GROUNDWATER]
;;Subcatchment   Aquifer          Node             Esurf  A1     B1     A2     B2     A3     Dsw    Egwt   Ebot   Wgr    Umc   
;;-------------- ---------------- ---------------- ------ ------ ------ ------ ------ ------ ------ ------ ------ ------ ------

[GWF]
;;Subcatchment   Flow    Equation
;;-------------- ------- --------

[SNOWPACKS]
;;Name           Surface    Parameters
;;-------------- ---------- ----------

[JUNCTIONS]
;;Name           Elevation  MaxDepth   InitDepth  SurDepth   Aponded   
;;-------------- ---------- ---------- ---------- ---------- ----------
1                10.7       10         0          0          0         
2                10.4       10         0          0          0         
3                10         10         0          0          0         
5                10.1       10         0          0          0    

[OUTFALLS]
;;Name           Elevation  Type       Stage Data       Gated    Route To        
;;-------------- ---------- ---------- ---------------- -------- ----------------
4                9.5        FREE              NO
6                9.3        FREE              NO

[DIVIDERS]
;;Name           Elevation  Diverted Link    Type       Parameters
;;-------------- ---------- ---------------- ---------- ----------

[STORAGE]
;;Name           Elev.    MaxDepth   InitDepth  Shape      Curve Name/Params            N/A      Fevap    Psi      Ksat     IMD     
;;-------------- -------- ---------- ----------- ---------- ---------------------------- -------- --------          -------- --------

[CONDUITS]
;;Name           From Node        To Node          Length     Roughness  InOffset   OutOffset  InitFlow   MaxFlow   
;;-------------- ---------------- ---------------- ---------- ---------- ---------- ---------- ---------- ----------
1                1                2                300        0.0125     10.7       10.4       0          0         
2                2                3                300        0.0125     10.4       10         0          0         
3                3                4                300        0.0125     10         9.5        0          0         
4                2                5                500        0.0125     10.4       10.1       0          0         
5                5                6                410        0.0125     10.1       9.3        0          0         
6                5                3                310        0.0125     10.1       10         0          0         

[PUMPS]
;;Name           From Node        To Node          Pump Curve       Status   Startup Shutoff 
;;-------------- ---------------- ---------------- ---------------- ------ -------- --------

[ORIFICES]
;;Name           From Node        To Node          Type         Offset     Qcoeff     Gated    CloseTime 
;;-------------- ---------------- ---------------- ------------ ---------- ---------- -------- ----------

[WEIRS]
;;Name           From Node        To Node          Type         CrestHt    Qcoeff     Gated    EndCon   EndCoeff   Surcharge  RoadWidth  RoadSurf   Coeff. Curve
;;-------------- ---------------- ---------------- ------------ ---------- ---------- -------- -------- ---------- ---------- ---------- ---------- ----------------

[OUTLETS]
;;Name           From Node        To Node          Offset     Type            QTable/Qcoeff    Qexpon     Gated   
;;-------------- ---------------- ---------------- ---------- --------------- ---------------- ---------- --------

[XSECTIONS]
;;Link           Shape        Geom1            Geom2      Geom3      Geom4      Barrels    Culvert   
;;-------------- ------------ ---------------- ---------- ---------- ---------- ---------- ----------
1                CIRCULAR     0.8              0          0          0          1                    
2                CIRCULAR     0.5              0          0          0          1                    
3                CIRCULAR     0.5              0          0          0          1                    
4                CIRCULAR     0.5              0          0          0          1                    
5                CIRCULAR     0.5              0          0          0          1                    
6                CIRCULAR     0.5              0          0          0          1                 

[TRANSECTS]
;;Transect Data in HEC-2 format

[LOSSES]
;;Link           Kentry     Kexit      Kavg       Flap Gate  Seepage   
;;-------------- ---------- ---------- ---------- ---------- ----------

[CONTROLS]

[POLLUTANTS]
;;Name           Units  Crain      Cgw        Crdii      Kdecay     SnowOnly   Co-Pollutant     Co-Frac    Cdwf       Cinit     
;;-------------- ------ ---------- ---------- ---------- ---------- ---------- ---------------- ---------- ---------- ----------

[LANDUSES]
;;               Sweeping   Fraction   Last      
;;Name           Interval   Available  Swept     
;;-------------- ---------- ---------- ----------

[COVERAGES]
;;Subcatchment   Land Use         Percent   
;;-------------- ---------------- ----------

[LOADINGS]
;;Subcatchment   Pollutant        Buildup   
;;-------------- ---------------- ----------

[BUILDUP]
;;Land Use       Pollutant        Function   Coeff1     Coeff2     Coeff3     Per Unit  
;;-------------- ---------------- ---------- ---------- ---------- ---------- ----------

[WASHOFF]
;;Land Use       Pollutant        Function   Coeff1     Coeff2     SweepRmvl  BmpRmvl   
;;-------------- ---------------- ---------- ---------- ---------- ---------- ----------

[TREATMENT]
;;Node           Pollutant        Function  
;;-------------- ---------------- ----------

[INFLOWS]
;;Node           Constituent      Time Series      Type     Mfactor  Sfactor  Baseline Pattern
;;-------------- ---------------- ---------------- -------- -------- -------- -------- --------
1                FLOW             junc1            FLOW     1.0      1.0              
3                FLOW             junc3            FLOW     1.0      1.0                      

[DWF]
;;Node           Constituent      Baseline   Patterns  
;;-------------- ---------------- ---------- ----------

[HYDROGRAPHS]
;;Hydrograph     Rain Gage/Month  Response R        T        K        Dmax     Drecov   Dinit   
;;-------------- ---------------- -------- -------- -------- -------- -------- -------- --------

[RDII]
;;Node           Unit Hydrograph  Sewer Area
;;-------------- ---------------- ----------

[CURVES]
;;Name           Type       X-Value    Y-Value   
;;-------------- ---------- ---------- ----------

[TIMESERIES]
;;Name           Date       Time       Value     
;;-------------- ---------- ---------- ----------
junc1                       0          0         
junc1                       1          0         
junc1                       2          0         
junc1                       3          0
junc1                       4          0         
junc1                       5          0         
junc1                       6          0         
junc1                       7          0         
junc1                       8          0         
junc1                       9          0         
junc1                       10         0         
;
junc3                       0          0         
junc3                       1          0         
junc3                       2          0         
junc3                       3          0
junc3                       4          0         
junc3                       5          0         
junc3                       6          0         
junc3                       7          0         
junc3                       8          0         
junc3                       9          0         
junc3                       10         0         
;
hpai                        0          9.1       
hpai                        1          10        
hpai                        2          10.9      
hpai                        3          10.3      
hpai                        4          9.7       
hpai                        5          9.1       
hpai                        6          8.5       
hpai                        7          8.5       
hpai                        8          8.5       
hpai                        9          8.5       
hpai                        10         8.5       

[PATTERNS]
;;Name           Type       Multipliers
;;-------------- ---------- ----------

[REPORT]
;;Reporting Options
SUBCATCHMENTS ALL
NODES ALL
LINKS ALL

[TAGS]

[MAP]
DIMENSIONS 0.000 0.000 10000.000 10000.000
Units      None

[COORDINATES]
;;Node           X-Coord            Y-Coord           
;;-------------- ------------------ ------------------
1                -40.706            6282.225          
2                2632.293           6255.088          
3                4789.688           5332.429          
5                5047.490           7679.783          
4                6662.144           4789.688          
6                6567.164           8453.189     

[VERTICES]
;;Link           X-Coord            Y-Coord           
;;-------------- ------------------ ------------------
6                4803.256           5278.155  

[Polygons]
;;Subcatchment   X-Coord            Y-Coord           
;;-------------- ------------------ ------------------

[SYMBOLS]
;;Gage           X-Coord            Y-Coord           
;;-------------- ------------------ ------------------

